11
0 718 617 695 749 334 240 116 801 148 399
718 0 212 528 148 444 799 202 8 136 742
617 212 0 983 471 187 103 398 883 943 316
695 528 983 0 280 232 807 619 895 8 821
749 148 471 280 0 793 663 831 929 379 821
334 444 187 232 793 0 732 595 415 815 25
240 799 103 807 663 732 0 994 72 86 856
116 202 398 619 831 595 994 0 675 843 634
801 8 883 895 929 415 72 675 0 202 179
148 136 943 8 379 815 86 843 202 0 956
399 742 316 821 821 25 856 634 179 956 0